c
c /Users/conrad/Desktop/projet_binero/output/mini.dimacs
c
p cnf 147 1001
1 0 
-17 1 2 0 
-18 1 2 0 
-1 17 18 0 
-2 17 18 0 
17 -1 -2 0 
17 -1 -2 0 
1 -17 -18 0 
2 -17 -18 0 
-17 -1 2 0 
-17 1 -2 0 
18 -1 2 0 
18 1 -2 0 
17 1 2 0 
17 -1 -2 0 
-18 1 2 0 
-18 -1 -2 0 
-19 3 4 0 
-20 3 4 0 
-3 19 20 0 
-4 19 20 0 
19 -3 -4 0 
19 -3 -4 0 
3 -19 -20 0 
4 -19 -20 0 
-19 -3 4 0 
-19 3 -4 0 
20 -3 4 0 
20 3 -4 0 
19 3 4 0 
19 -3 -4 0 
-20 3 4 0 
-20 -3 -4 0 
-29 25 26 0 
-30 25 26 0 
-25 29 30 0 
-26 29 30 0 
29 -25 -26 0 
29 -25 -26 0 
25 -29 -30 0 
26 -29 -30 0 
-29 -25 26 0 
-29 25 -26 0 
30 -25 26 0 
30 25 -26 0 
29 25 26 0 
29 -25 -26 0 
-30 25 26 0 
-30 -25 -26 0 
-31 27 28 0 
-32 27 28 0 
-27 31 32 0 
-28 31 32 0 
31 -27 -28 0 
31 -27 -28 0 
27 -31 -32 0 
28 -31 -32 0 
-31 -27 28 0 
-31 27 -28 0 
32 -27 28 0 
32 27 -28 0 
31 27 28 0 
31 -27 -28 0 
-32 27 28 0 
-32 -27 -28 0 
-26 22 23 0 
-27 22 23 0 
-22 26 27 0 
-23 26 27 0 
26 -22 -23 0 
26 -22 -23 0 
22 -26 -27 0 
23 -26 -27 0 
-26 -22 23 0 
-26 22 -23 0 
27 -22 23 0 
27 22 -23 0 
26 22 23 0 
26 -22 -23 0 
-27 22 23 0 
-27 -22 -23 0 
-34 30 31 0 
-35 30 31 0 
-30 34 35 0 
-31 34 35 0 
34 -30 -31 0 
34 -30 -31 0 
30 -34 -35 0 
31 -34 -35 0 
-34 -30 31 0 
-34 30 -31 0 
35 -30 31 0 
35 30 -31 0 
34 30 31 0 
34 -30 -31 0 
-35 30 31 0 
-35 -30 -31 0 
-29 -30 31 32 0 
-33 5 6 0 
-34 5 6 0 
-5 33 34 0 
-6 33 34 0 
33 -5 -6 0 
33 -5 -6 0 
5 -33 -34 0 
6 -33 -34 0 
-33 -5 6 0 
-33 5 -6 0 
34 -5 6 0 
34 5 -6 0 
33 5 6 0 
33 -5 -6 0 
-34 5 6 0 
-34 -5 -6 0 
-35 7 8 0 
-36 7 8 0 
-7 35 36 0 
-8 35 36 0 
35 -7 -8 0 
35 -7 -8 0 
7 -35 -36 0 
8 -35 -36 0 
-35 -7 8 0 
-35 7 -8 0 
36 -7 8 0 
36 7 -8 0 
35 7 8 0 
35 -7 -8 0 
-36 7 8 0 
-36 -7 -8 0 
-45 41 42 0 
-46 41 42 0 
-41 45 46 0 
-42 45 46 0 
45 -41 -42 0 
45 -41 -42 0 
41 -45 -46 0 
42 -45 -46 0 
-45 -41 42 0 
-45 41 -42 0 
46 -41 42 0 
46 41 -42 0 
45 41 42 0 
45 -41 -42 0 
-46 41 42 0 
-46 -41 -42 0 
-47 43 44 0 
-48 43 44 0 
-43 47 48 0 
-44 47 48 0 
47 -43 -44 0 
47 -43 -44 0 
43 -47 -48 0 
44 -47 -48 0 
-47 -43 44 0 
-47 43 -44 0 
48 -43 44 0 
48 43 -44 0 
47 43 44 0 
47 -43 -44 0 
-48 43 44 0 
-48 -43 -44 0 
-42 38 39 0 
-43 38 39 0 
-38 42 43 0 
-39 42 43 0 
42 -38 -39 0 
42 -38 -39 0 
38 -42 -43 0 
39 -42 -43 0 
-42 -38 39 0 
-42 38 -39 0 
43 -38 39 0 
43 38 -39 0 
42 38 39 0 
42 -38 -39 0 
-43 38 39 0 
-43 -38 -39 0 
-50 46 47 0 
-51 46 47 0 
-46 50 51 0 
-47 50 51 0 
50 -46 -47 0 
50 -46 -47 0 
46 -50 -51 0 
47 -50 -51 0 
-50 -46 47 0 
-50 46 -47 0 
51 -46 47 0 
51 46 -47 0 
50 46 47 0 
50 -46 -47 0 
-51 46 47 0 
-51 -46 -47 0 
-45 -46 47 48 0 
-49 9 10 0 
-50 9 10 0 
-9 49 50 0 
-10 49 50 0 
49 -9 -10 0 
49 -9 -10 0 
9 -49 -50 0 
10 -49 -50 0 
-49 -9 10 0 
-49 9 -10 0 
50 -9 10 0 
50 9 -10 0 
49 9 10 0 
49 -9 -10 0 
-50 9 10 0 
-50 -9 -10 0 
-51 11 12 0 
-52 11 12 0 
-11 51 52 0 
-12 51 52 0 
51 -11 -12 0 
51 -11 -12 0 
11 -51 -52 0 
12 -51 -52 0 
-51 -11 12 0 
-51 11 -12 0 
52 -11 12 0 
52 11 -12 0 
51 11 12 0 
51 -11 -12 0 
-52 11 12 0 
-52 -11 -12 0 
-61 57 58 0 
-62 57 58 0 
-57 61 62 0 
-58 61 62 0 
61 -57 -58 0 
61 -57 -58 0 
57 -61 -62 0 
58 -61 -62 0 
-61 -57 58 0 
-61 57 -58 0 
62 -57 58 0 
62 57 -58 0 
61 57 58 0 
61 -57 -58 0 
-62 57 58 0 
-62 -57 -58 0 
-63 59 60 0 
-64 59 60 0 
-59 63 64 0 
-60 63 64 0 
63 -59 -60 0 
63 -59 -60 0 
59 -63 -64 0 
60 -63 -64 0 
-63 -59 60 0 
-63 59 -60 0 
64 -59 60 0 
64 59 -60 0 
63 59 60 0 
63 -59 -60 0 
-64 59 60 0 
-64 -59 -60 0 
-58 54 55 0 
-59 54 55 0 
-54 58 59 0 
-55 58 59 0 
58 -54 -55 0 
58 -54 -55 0 
54 -58 -59 0 
55 -58 -59 0 
-58 -54 55 0 
-58 54 -55 0 
59 -54 55 0 
59 54 -55 0 
58 54 55 0 
58 -54 -55 0 
-59 54 55 0 
-59 -54 -55 0 
-66 62 63 0 
-67 62 63 0 
-62 66 67 0 
-63 66 67 0 
66 -62 -63 0 
66 -62 -63 0 
62 -66 -67 0 
63 -66 -67 0 
-66 -62 63 0 
-66 62 -63 0 
67 -62 63 0 
67 62 -63 0 
66 62 63 0 
66 -62 -63 0 
-67 62 63 0 
-67 -62 -63 0 
-61 -62 63 64 0 
-65 13 14 0 
-66 13 14 0 
-13 65 66 0 
-14 65 66 0 
65 -13 -14 0 
65 -13 -14 0 
13 -65 -66 0 
14 -65 -66 0 
-65 -13 14 0 
-65 13 -14 0 
66 -13 14 0 
66 13 -14 0 
65 13 14 0 
65 -13 -14 0 
-66 13 14 0 
-66 -13 -14 0 
-67 15 16 0 
-68 15 16 0 
-15 67 68 0 
-16 67 68 0 
67 -15 -16 0 
67 -15 -16 0 
15 -67 -68 0 
16 -67 -68 0 
-67 -15 16 0 
-67 15 -16 0 
68 -15 16 0 
68 15 -16 0 
67 15 16 0 
67 -15 -16 0 
-68 15 16 0 
-68 -15 -16 0 
-77 73 74 0 
-78 73 74 0 
-73 77 78 0 
-74 77 78 0 
77 -73 -74 0 
77 -73 -74 0 
73 -77 -78 0 
74 -77 -78 0 
-77 -73 74 0 
-77 73 -74 0 
78 -73 74 0 
78 73 -74 0 
77 73 74 0 
77 -73 -74 0 
-78 73 74 0 
-78 -73 -74 0 
-79 75 76 0 
-80 75 76 0 
-75 79 80 0 
-76 79 80 0 
79 -75 -76 0 
79 -75 -76 0 
75 -79 -80 0 
76 -79 -80 0 
-79 -75 76 0 
-79 75 -76 0 
80 -75 76 0 
80 75 -76 0 
79 75 76 0 
79 -75 -76 0 
-80 75 76 0 
-80 -75 -76 0 
-74 70 71 0 
-75 70 71 0 
-70 74 75 0 
-71 74 75 0 
74 -70 -71 0 
74 -70 -71 0 
70 -74 -75 0 
71 -74 -75 0 
-74 -70 71 0 
-74 70 -71 0 
75 -70 71 0 
75 70 -71 0 
74 70 71 0 
74 -70 -71 0 
-75 70 71 0 
-75 -70 -71 0 
-82 78 79 0 
-83 78 79 0 
-78 82 83 0 
-79 82 83 0 
82 -78 -79 0 
82 -78 -79 0 
78 -82 -83 0 
79 -82 -83 0 
-82 -78 79 0 
-82 78 -79 0 
83 -78 79 0 
83 78 -79 0 
82 78 79 0 
82 -78 -79 0 
-83 78 79 0 
-83 -78 -79 0 
-77 -78 79 80 0 
-17 1 5 0 
-18 1 5 0 
-1 17 18 0 
-5 17 18 0 
17 -1 -5 0 
17 -1 -5 0 
1 -17 -18 0 
5 -17 -18 0 
-17 -1 5 0 
-17 1 -5 0 
18 -1 5 0 
18 1 -5 0 
17 1 5 0 
17 -1 -5 0 
-18 1 5 0 
-18 -1 -5 0 
-19 9 13 0 
-20 9 13 0 
-9 19 20 0 
-13 19 20 0 
19 -9 -13 0 
19 -9 -13 0 
9 -19 -20 0 
13 -19 -20 0 
-19 -9 13 0 
-19 9 -13 0 
20 -9 13 0 
20 9 -13 0 
19 9 13 0 
19 -9 -13 0 
-20 9 13 0 
-20 -9 -13 0 
-93 89 90 0 
-94 89 90 0 
-89 93 94 0 
-90 93 94 0 
93 -89 -90 0 
93 -89 -90 0 
89 -93 -94 0 
90 -93 -94 0 
-93 -89 90 0 
-93 89 -90 0 
94 -89 90 0 
94 89 -90 0 
93 89 90 0 
93 -89 -90 0 
-94 89 90 0 
-94 -89 -90 0 
-95 91 92 0 
-96 91 92 0 
-91 95 96 0 
-92 95 96 0 
95 -91 -92 0 
95 -91 -92 0 
91 -95 -96 0 
92 -95 -96 0 
-95 -91 92 0 
-95 91 -92 0 
96 -91 92 0 
96 91 -92 0 
95 91 92 0 
95 -91 -92 0 
-96 91 92 0 
-96 -91 -92 0 
-90 86 87 0 
-91 86 87 0 
-86 90 91 0 
-87 90 91 0 
90 -86 -87 0 
90 -86 -87 0 
86 -90 -91 0 
87 -90 -91 0 
-90 -86 87 0 
-90 86 -87 0 
91 -86 87 0 
91 86 -87 0 
90 86 87 0 
90 -86 -87 0 
-91 86 87 0 
-91 -86 -87 0 
-98 94 95 0 
-99 94 95 0 
-94 98 99 0 
-95 98 99 0 
98 -94 -95 0 
98 -94 -95 0 
94 -98 -99 0 
95 -98 -99 0 
-98 -94 95 0 
-98 94 -95 0 
99 -94 95 0 
99 94 -95 0 
98 94 95 0 
98 -94 -95 0 
-99 94 95 0 
-99 -94 -95 0 
-93 -110 127 144 0 
-33 2 6 0 
-34 2 6 0 
-2 33 34 0 
-6 33 34 0 
33 -2 -6 0 
33 -2 -6 0 
2 -33 -34 0 
6 -33 -34 0 
-33 -2 6 0 
-33 2 -6 0 
34 -2 6 0 
34 2 -6 0 
33 2 6 0 
33 -2 -6 0 
-34 2 6 0 
-34 -2 -6 0 
-35 10 14 0 
-36 10 14 0 
-10 35 36 0 
-14 35 36 0 
35 -10 -14 0 
35 -10 -14 0 
10 -35 -36 0 
14 -35 -36 0 
-35 -10 14 0 
-35 10 -14 0 
36 -10 14 0 
36 10 -14 0 
35 10 14 0 
35 -10 -14 0 
-36 10 14 0 
-36 -10 -14 0 
-109 105 106 0 
-110 105 106 0 
-105 109 110 0 
-106 109 110 0 
109 -105 -106 0 
109 -105 -106 0 
105 -109 -110 0 
106 -109 -110 0 
-109 -105 106 0 
-109 105 -106 0 
110 -105 106 0 
110 105 -106 0 
109 105 106 0 
109 -105 -106 0 
-110 105 106 0 
-110 -105 -106 0 
-111 107 108 0 
-112 107 108 0 
-107 111 112 0 
-108 111 112 0 
111 -107 -108 0 
111 -107 -108 0 
107 -111 -112 0 
108 -111 -112 0 
-111 -107 108 0 
-111 107 -108 0 
112 -107 108 0 
112 107 -108 0 
111 107 108 0 
111 -107 -108 0 
-112 107 108 0 
-112 -107 -108 0 
-106 102 103 0 
-107 102 103 0 
-102 106 107 0 
-103 106 107 0 
106 -102 -103 0 
106 -102 -103 0 
102 -106 -107 0 
103 -106 -107 0 
-106 -102 103 0 
-106 102 -103 0 
107 -102 103 0 
107 102 -103 0 
106 102 103 0 
106 -102 -103 0 
-107 102 103 0 
-107 -102 -103 0 
-114 110 111 0 
-115 110 111 0 
-110 114 115 0 
-111 114 115 0 
114 -110 -111 0 
114 -110 -111 0 
110 -114 -115 0 
111 -114 -115 0 
-114 -110 111 0 
-114 110 -111 0 
115 -110 111 0 
115 110 -111 0 
114 110 111 0 
114 -110 -111 0 
-115 110 111 0 
-115 -110 -111 0 
-93 -110 127 144 0 
-49 3 7 0 
-50 3 7 0 
-3 49 50 0 
-7 49 50 0 
49 -3 -7 0 
49 -3 -7 0 
3 -49 -50 0 
7 -49 -50 0 
-49 -3 7 0 
-49 3 -7 0 
50 -3 7 0 
50 3 -7 0 
49 3 7 0 
49 -3 -7 0 
-50 3 7 0 
-50 -3 -7 0 
-51 11 15 0 
-52 11 15 0 
-11 51 52 0 
-15 51 52 0 
51 -11 -15 0 
51 -11 -15 0 
11 -51 -52 0 
15 -51 -52 0 
-51 -11 15 0 
-51 11 -15 0 
52 -11 15 0 
52 11 -15 0 
51 11 15 0 
51 -11 -15 0 
-52 11 15 0 
-52 -11 -15 0 
-125 121 122 0 
-126 121 122 0 
-121 125 126 0 
-122 125 126 0 
125 -121 -122 0 
125 -121 -122 0 
121 -125 -126 0 
122 -125 -126 0 
-125 -121 122 0 
-125 121 -122 0 
126 -121 122 0 
126 121 -122 0 
125 121 122 0 
125 -121 -122 0 
-126 121 122 0 
-126 -121 -122 0 
-127 123 124 0 
-128 123 124 0 
-123 127 128 0 
-124 127 128 0 
127 -123 -124 0 
127 -123 -124 0 
123 -127 -128 0 
124 -127 -128 0 
-127 -123 124 0 
-127 123 -124 0 
128 -123 124 0 
128 123 -124 0 
127 123 124 0 
127 -123 -124 0 
-128 123 124 0 
-128 -123 -124 0 
-122 118 119 0 
-123 118 119 0 
-118 122 123 0 
-119 122 123 0 
122 -118 -119 0 
122 -118 -119 0 
118 -122 -123 0 
119 -122 -123 0 
-122 -118 119 0 
-122 118 -119 0 
123 -118 119 0 
123 118 -119 0 
122 118 119 0 
122 -118 -119 0 
-123 118 119 0 
-123 -118 -119 0 
-130 126 127 0 
-131 126 127 0 
-126 130 131 0 
-127 130 131 0 
130 -126 -127 0 
130 -126 -127 0 
126 -130 -131 0 
127 -130 -131 0 
-130 -126 127 0 
-130 126 -127 0 
131 -126 127 0 
131 126 -127 0 
130 126 127 0 
130 -126 -127 0 
-131 126 127 0 
-131 -126 -127 0 
-93 -110 127 144 0 
-65 4 8 0 
-66 4 8 0 
-4 65 66 0 
-8 65 66 0 
65 -4 -8 0 
65 -4 -8 0 
4 -65 -66 0 
8 -65 -66 0 
-65 -4 8 0 
-65 4 -8 0 
66 -4 8 0 
66 4 -8 0 
65 4 8 0 
65 -4 -8 0 
-66 4 8 0 
-66 -4 -8 0 
-67 12 16 0 
-68 12 16 0 
-12 67 68 0 
-16 67 68 0 
67 -12 -16 0 
67 -12 -16 0 
12 -67 -68 0 
16 -67 -68 0 
-67 -12 16 0 
-67 12 -16 0 
68 -12 16 0 
68 12 -16 0 
67 12 16 0 
67 -12 -16 0 
-68 12 16 0 
-68 -12 -16 0 
-141 137 138 0 
-142 137 138 0 
-137 141 142 0 
-138 141 142 0 
141 -137 -138 0 
141 -137 -138 0 
137 -141 -142 0 
138 -141 -142 0 
-141 -137 138 0 
-141 137 -138 0 
142 -137 138 0 
142 137 -138 0 
141 137 138 0 
141 -137 -138 0 
-142 137 138 0 
-142 -137 -138 0 
-143 139 140 0 
-144 139 140 0 
-139 143 144 0 
-140 143 144 0 
143 -139 -140 0 
143 -139 -140 0 
139 -143 -144 0 
140 -143 -144 0 
-143 -139 140 0 
-143 139 -140 0 
144 -139 140 0 
144 139 -140 0 
143 139 140 0 
143 -139 -140 0 
-144 139 140 0 
-144 -139 -140 0 
-138 134 135 0 
-139 134 135 0 
-134 138 139 0 
-135 138 139 0 
138 -134 -135 0 
138 -134 -135 0 
134 -138 -139 0 
135 -138 -139 0 
-138 -134 135 0 
-138 134 -135 0 
139 -134 135 0 
139 134 -135 0 
138 134 135 0 
138 -134 -135 0 
-139 134 135 0 
-139 -134 -135 0 
-146 142 143 0 
-147 142 143 0 
-142 146 147 0 
-143 146 147 0 
146 -142 -143 0 
146 -142 -143 0 
142 -146 -147 0 
143 -146 -147 0 
-146 -142 143 0 
-146 142 -143 0 
147 -142 143 0 
147 142 -143 0 
146 142 143 0 
146 -142 -143 0 
-147 142 143 0 
-147 -142 -143 0 
-93 -110 127 144 0 
1 2 3 0 
-1 -2 -3 0 
2 3 4 0 
-2 -3 -4 0 
5 6 7 0 
-5 -6 -7 0 
6 7 8 0 
-6 -7 -8 0 
9 10 11 0 
-9 -10 -11 0 
10 11 12 0 
-10 -11 -12 0 
13 14 15 0 
-13 -14 -15 0 
14 15 16 0 
-14 -15 -16 0 
1 5 5 0 
-1 -5 -9 0 
2 6 6 0 
-2 -6 -10 0 
5 9 9 0 
-5 -9 -13 0 
6 10 10 0 
-6 -10 -14 0 
9 13 13 0 
-9 -13 -17 0 
10 14 14 0 
-10 -14 -18 0 
13 17 17 0 
-13 -17 -21 0 
14 18 18 0 
-14 -18 -22 0 
-1 -5 -2 -6 -3 -7 -4 -8 0 
-1 -5 -2 -6 -3 -7 4 8 0 
-1 -5 -2 -6 3 7 -4 -8 0 
-1 -5 -2 -6 3 7 4 8 0 
-1 -5 2 6 -3 -7 -4 -8 0 
-1 -5 2 6 -3 -7 4 8 0 
-1 -5 2 6 3 7 -4 -8 0 
-1 -5 2 6 3 7 4 8 0 
1 5 -2 -6 -3 -7 -4 -8 0 
1 5 -2 -6 -3 -7 4 8 0 
1 5 -2 -6 3 7 -4 -8 0 
1 5 -2 -6 3 7 4 8 0 
1 5 2 6 -3 -7 -4 -8 0 
1 5 2 6 -3 -7 4 8 0 
1 5 2 6 3 7 -4 -8 0 
1 5 2 6 3 7 4 8 0 
-1 -9 -2 -10 -3 -11 -4 -12 0 
-1 -9 -2 -10 -3 -11 4 12 0 
-1 -9 -2 -10 3 11 -4 -12 0 
-1 -9 -2 -10 3 11 4 12 0 
-1 -9 2 10 -3 -11 -4 -12 0 
-1 -9 2 10 -3 -11 4 12 0 
-1 -9 2 10 3 11 -4 -12 0 
-1 -9 2 10 3 11 4 12 0 
1 9 -2 -10 -3 -11 -4 -12 0 
1 9 -2 -10 -3 -11 4 12 0 
1 9 -2 -10 3 11 -4 -12 0 
1 9 -2 -10 3 11 4 12 0 
1 9 2 10 -3 -11 -4 -12 0 
1 9 2 10 -3 -11 4 12 0 
1 9 2 10 3 11 -4 -12 0 
1 9 2 10 3 11 4 12 0 
-1 -13 -2 -14 -3 -15 -4 -16 0 
-1 -13 -2 -14 -3 -15 4 16 0 
-1 -13 -2 -14 3 15 -4 -16 0 
-1 -13 -2 -14 3 15 4 16 0 
-1 -13 2 14 -3 -15 -4 -16 0 
-1 -13 2 14 -3 -15 4 16 0 
-1 -13 2 14 3 15 -4 -16 0 
-1 -13 2 14 3 15 4 16 0 
1 13 -2 -14 -3 -15 -4 -16 0 
1 13 -2 -14 -3 -15 4 16 0 
1 13 -2 -14 3 15 -4 -16 0 
1 13 -2 -14 3 15 4 16 0 
1 13 2 14 -3 -15 -4 -16 0 
1 13 2 14 -3 -15 4 16 0 
1 13 2 14 3 15 -4 -16 0 
1 13 2 14 3 15 4 16 0 
-5 -9 -6 -10 -7 -11 -8 -12 0 
-5 -9 -6 -10 -7 -11 8 12 0 
-5 -9 -6 -10 7 11 -8 -12 0 
-5 -9 -6 -10 7 11 8 12 0 
-5 -9 6 10 -7 -11 -8 -12 0 
-5 -9 6 10 -7 -11 8 12 0 
-5 -9 6 10 7 11 -8 -12 0 
-5 -9 6 10 7 11 8 12 0 
5 9 -6 -10 -7 -11 -8 -12 0 
5 9 -6 -10 -7 -11 8 12 0 
5 9 -6 -10 7 11 -8 -12 0 
5 9 -6 -10 7 11 8 12 0 
5 9 6 10 -7 -11 -8 -12 0 
5 9 6 10 -7 -11 8 12 0 
5 9 6 10 7 11 -8 -12 0 
5 9 6 10 7 11 8 12 0 
-5 -13 -6 -14 -7 -15 -8 -16 0 
-5 -13 -6 -14 -7 -15 8 16 0 
-5 -13 -6 -14 7 15 -8 -16 0 
-5 -13 -6 -14 7 15 8 16 0 
-5 -13 6 14 -7 -15 -8 -16 0 
-5 -13 6 14 -7 -15 8 16 0 
-5 -13 6 14 7 15 -8 -16 0 
-5 -13 6 14 7 15 8 16 0 
5 13 -6 -14 -7 -15 -8 -16 0 
5 13 -6 -14 -7 -15 8 16 0 
5 13 -6 -14 7 15 -8 -16 0 
5 13 -6 -14 7 15 8 16 0 
5 13 6 14 -7 -15 -8 -16 0 
5 13 6 14 -7 -15 8 16 0 
5 13 6 14 7 15 -8 -16 0 
5 13 6 14 7 15 8 16 0 
-9 -13 -10 -14 -11 -15 -12 -16 0 
-9 -13 -10 -14 -11 -15 12 16 0 
-9 -13 -10 -14 11 15 -12 -16 0 
-9 -13 -10 -14 11 15 12 16 0 
-9 -13 10 14 -11 -15 -12 -16 0 
-9 -13 10 14 -11 -15 12 16 0 
-9 -13 10 14 11 15 -12 -16 0 
-9 -13 10 14 11 15 12 16 0 
9 13 -10 -14 -11 -15 -12 -16 0 
9 13 -10 -14 -11 -15 12 16 0 
9 13 -10 -14 11 15 -12 -16 0 
9 13 -10 -14 11 15 12 16 0 
9 13 10 14 -11 -15 -12 -16 0 
9 13 10 14 -11 -15 12 16 0 
9 13 10 14 11 15 -12 -16 0 
9 13 10 14 11 15 12 16 0 
-1 -2 -5 -6 -9 -10 -13 -14 0 
-1 -2 -5 -6 -9 -10 13 14 0 
-1 -2 -5 -6 9 10 -13 -14 0 
-1 -2 -5 -6 9 10 13 14 0 
-1 -2 5 6 -9 -10 -13 -14 0 
-1 -2 5 6 -9 -10 13 14 0 
-1 -2 5 6 9 10 -13 -14 0 
-1 -2 5 6 9 10 13 14 0 
1 2 -5 -6 -9 -10 -13 -14 0 
1 2 -5 -6 -9 -10 13 14 0 
1 2 -5 -6 9 10 -13 -14 0 
1 2 -5 -6 9 10 13 14 0 
1 2 5 6 -9 -10 -13 -14 0 
1 2 5 6 -9 -10 13 14 0 
1 2 5 6 9 10 -13 -14 0 
1 2 5 6 9 10 13 14 0 
-1 -3 -5 -7 -9 -11 -13 -15 0 
-1 -3 -5 -7 -9 -11 13 15 0 
-1 -3 -5 -7 9 11 -13 -15 0 
-1 -3 -5 -7 9 11 13 15 0 
-1 -3 5 7 -9 -11 -13 -15 0 
-1 -3 5 7 -9 -11 13 15 0 
-1 -3 5 7 9 11 -13 -15 0 
-1 -3 5 7 9 11 13 15 0 
1 3 -5 -7 -9 -11 -13 -15 0 
1 3 -5 -7 -9 -11 13 15 0 
1 3 -5 -7 9 11 -13 -15 0 
1 3 -5 -7 9 11 13 15 0 
1 3 5 7 -9 -11 -13 -15 0 
1 3 5 7 -9 -11 13 15 0 
1 3 5 7 9 11 -13 -15 0 
1 3 5 7 9 11 13 15 0 
-1 -4 -5 -8 -9 -12 -13 -16 0 
-1 -4 -5 -8 -9 -12 13 16 0 
-1 -4 -5 -8 9 12 -13 -16 0 
-1 -4 -5 -8 9 12 13 16 0 
-1 -4 5 8 -9 -12 -13 -16 0 
-1 -4 5 8 -9 -12 13 16 0 
-1 -4 5 8 9 12 -13 -16 0 
-1 -4 5 8 9 12 13 16 0 
1 4 -5 -8 -9 -12 -13 -16 0 
1 4 -5 -8 -9 -12 13 16 0 
1 4 -5 -8 9 12 -13 -16 0 
1 4 -5 -8 9 12 13 16 0 
1 4 5 8 -9 -12 -13 -16 0 
1 4 5 8 -9 -12 13 16 0 
1 4 5 8 9 12 -13 -16 0 
1 4 5 8 9 12 13 16 0 
-2 -3 -6 -7 -10 -11 -14 -15 0 
-2 -3 -6 -7 -10 -11 14 15 0 
-2 -3 -6 -7 10 11 -14 -15 0 
-2 -3 -6 -7 10 11 14 15 0 
-2 -3 6 7 -10 -11 -14 -15 0 
-2 -3 6 7 -10 -11 14 15 0 
-2 -3 6 7 10 11 -14 -15 0 
-2 -3 6 7 10 11 14 15 0 
2 3 -6 -7 -10 -11 -14 -15 0 
2 3 -6 -7 -10 -11 14 15 0 
2 3 -6 -7 10 11 -14 -15 0 
2 3 -6 -7 10 11 14 15 0 
2 3 6 7 -10 -11 -14 -15 0 
2 3 6 7 -10 -11 14 15 0 
2 3 6 7 10 11 -14 -15 0 
2 3 6 7 10 11 14 15 0 
-2 -4 -6 -8 -10 -12 -14 -16 0 
-2 -4 -6 -8 -10 -12 14 16 0 
-2 -4 -6 -8 10 12 -14 -16 0 
-2 -4 -6 -8 10 12 14 16 0 
-2 -4 6 8 -10 -12 -14 -16 0 
-2 -4 6 8 -10 -12 14 16 0 
-2 -4 6 8 10 12 -14 -16 0 
-2 -4 6 8 10 12 14 16 0 
2 4 -6 -8 -10 -12 -14 -16 0 
2 4 -6 -8 -10 -12 14 16 0 
2 4 -6 -8 10 12 -14 -16 0 
2 4 -6 -8 10 12 14 16 0 
2 4 6 8 -10 -12 -14 -16 0 
2 4 6 8 -10 -12 14 16 0 
2 4 6 8 10 12 -14 -16 0 
2 4 6 8 10 12 14 16 0 
-3 -4 -7 -8 -11 -12 -15 -16 0 
-3 -4 -7 -8 -11 -12 15 16 0 
-3 -4 -7 -8 11 12 -15 -16 0 
-3 -4 -7 -8 11 12 15 16 0 
-3 -4 7 8 -11 -12 -15 -16 0 
-3 -4 7 8 -11 -12 15 16 0 
-3 -4 7 8 11 12 -15 -16 0 
-3 -4 7 8 11 12 15 16 0 
3 4 -7 -8 -11 -12 -15 -16 0 
3 4 -7 -8 -11 -12 15 16 0 
3 4 -7 -8 11 12 -15 -16 0 
3 4 -7 -8 11 12 15 16 0 
3 4 7 8 -11 -12 -15 -16 0 
3 4 7 8 -11 -12 15 16 0 
3 4 7 8 11 12 -15 -16 0 
3 4 7 8 11 12 15 16 0 
